901556
34,86,150,54,129,61,101,39,80,26,168,111,154,132,228,71,0,161,209,35,6,62,139,70,31,82,134,117,146,66,48,73,156,42,206,38,177,162,126,30,198,97,112,72,125,151,121,176,50,41,159,208,217,205,85,69,118,9,199,197,109,13,18,224,46,110,47,16,222,175,219,12,133,226,193,96,164,153,64,173,200,119,7,29,14,63,43,188,15,184,158,2,207,59,136,137,22,68,225,190,113,28,75,130,147,172,135,180,83,192,194,187,123,166,84,24,122,78,94,56,10,138,142,163,124,45,213,196,57,212,167,92,51,171,44,203,58,220,148,79,60,181,131,127,23,76,40,221,105,218,140,189,65,98,201,104,53,174,55,91,215,99,52,17,120,179,157,81,1,114,229,211,103,128,102,186,11,145,227,87,185,170,149,108,89,141,169,3,216,152,20,32,223,37,202,5,144,155,210,4,21,182,19,116,25,90,106,195,178,160,115,183,95,165,100,8,67,143,88,191,36,33,204,74,214,77,27,49,107,93
